results/lp/URT_10_deadline_heurTrue.lp
\ Model JobShopModel
\ LP format - for model browsing. Use MPS format to capture full model detail.
Minimize
  0 x[0,0,0,0] + 0 x[0,0,0,1] + 0 x[0,0,2,1] + 0 x[0,0,2,2] + 0 x[0,0,3,1]
   + 0 x[0,0,3,2] + 0 x[0,1,0,0] + 0 x[0,1,0,1] + 0 x[0,1,0,2]
   + 0 x[0,1,1,2] + 0 x[0,1,2,0] + 0 x[0,1,3,0] + 0 x[0,2,0,1]
   + 0 x[0,2,0,2] + 0 x[0,2,2,1] + 0 x[0,2,2,2] + 0 x[0,2,3,1]
   + 0 x[0,2,3,2] + 0 x[1,0,0,0] + 0 x[1,0,0,1] + 0 x[1,0,0,2]
   + 0 x[1,0,1,0] + 0 x[1,0,1,2] + 0 x[1,0,2,0] + 0 x[1,0,3,0]
   + 0 x[1,1,0,0] + 0 x[1,1,0,1] + 0 x[1,1,0,2] + 0 x[1,1,1,1]
   + 0 x[1,1,1,2] + 0 x[1,1,2,0] + 0 x[1,1,3,0] + 0 x[1,2,0,0]
   + 0 x[1,2,0,1] + 0 x[1,2,0,2] + 0 x[1,2,1,0] + 0 x[1,2,1,1]
   + 0 x[1,2,1,2] + 0 x[1,2,2,2] + 0 x[1,2,3,1] + 0 x[1,2,3,2]
   + 0 x[2,0,0,0] + 0 x[2,0,0,1] + 0 x[2,0,0,2] + 0 x[2,0,1,0]
   + 0 x[2,0,1,1] + 0 x[2,0,1,2] + 0 x[2,0,2,0] + 0 x[2,0,2,2]
   + 0 x[2,0,3,1] + 0 x[2,0,3,2] + 0 x[2,1,0,0] + 0 x[2,1,0,1]
   + 0 x[2,1,0,2] + 0 x[2,1,1,0] + 0 x[2,1,1,1] + 0 x[2,1,1,2]
   + 0 x[2,1,2,1] + 0 x[2,2,0,0] + 0 x[2,2,0,1] + 0 x[2,2,0,2]
   + 0 x[2,2,1,0] + 0 x[2,2,1,1] + 0 x[2,2,1,2] + 0 x[2,2,2,0]
   + 0 x[2,2,2,2] + 0 x[2,2,3,0] + 0 x[3,0,0,0] + 0 x[3,0,0,1]
   + 0 x[3,0,0,2] + 0 x[3,0,1,0] + 0 x[3,0,1,1] + 0 x[3,0,1,2]
   + 0 x[3,0,2,0] + 0 x[3,0,2,1] + 0 x[3,0,2,2] + 0 x[3,0,3,0]
   + 0 x[3,0,3,1] + 0 x[3,0,3,2] + 0 x[3,1,0,0] + 0 x[3,1,0,1]
   + 0 x[3,1,0,2] + 0 x[3,1,1,0] + 0 x[3,1,1,1] + 0 x[3,1,1,2]
   + 0 x[3,1,2,0] + 0 x[3,1,2,1] + 0 x[3,1,2,2] + 0 x[3,1,3,0]
   + 0 x[3,1,3,1] + 0 x[3,2,0,0] + 0 x[3,2,0,1] + 0 x[3,2,0,2]
   + 0 x[3,2,1,0] + 0 x[3,2,1,1] + 0 x[3,2,1,2] + 0 x[3,2,2,0]
   + 0 x[3,2,2,1] + 0 x[3,2,2,2] + 0 x[3,2,3,0] + 0 x[3,2,3,2] + Z_FO
Subject To
 auxiliaryOF_constraint: 5 y[0,0,3] + s[0,0,3] - 1e+07 C193
   >= -9.999988e+06
 auxiliaryOF_constraint: 5 y[0,0,3] + s[0,0,3] - 1e+07 C193 <= 12
 auxiliaryOF_constraint: 2 y[0,0,4] + s[0,0,4] - 1e+07 C194
   >= -9.999988e+06
 auxiliaryOF_constraint: 2 y[0,0,4] + s[0,0,4] - 1e+07 C194 <= 12
 auxiliaryOF_constraint: 5 y[1,0,2] + s[1,0,2] - 1e+07 C195
   >= -9.999985e+06
 auxiliaryOF_constraint: 5 y[1,0,2] + s[1,0,2] - 1e+07 C195 <= 15
 auxiliaryOF_constraint: 5 y[1,0,3] + s[1,0,3] - 1e+07 C196
   >= -9.999985e+06
 auxiliaryOF_constraint: 5 y[1,0,3] + s[1,0,3] - 1e+07 C196 <= 15
 auxiliaryOF_constraint: 2 y[2,0,1] + s[2,0,1] - 1e+07 C197
   >= -9.999994e+06
 auxiliaryOF_constraint: 2 y[2,0,1] + s[2,0,1] - 1e+07 C197 <= 6
 auxiliaryOF_constraint: 5 y[2,0,4] + s[2,0,4] - 1e+07 C198
   >= -9.999994e+06
 auxiliaryOF_constraint: 5 y[2,0,4] + s[2,0,4] - 1e+07 C198 <= 6
 auxiliaryOF_constraint: 3 y[3,0,1] + s[3,0,1] - 1e+07 C199
   >= -9.999994e+06
 auxiliaryOF_constraint: 3 y[3,0,1] + s[3,0,1] - 1e+07 C199 <= 6
 auxiliaryOF_constraint: 2 y[3,0,4] + s[3,0,4] - 1e+07 C200
   >= -9.999994e+06
 auxiliaryOF_constraint: 2 y[3,0,4] + s[3,0,4] - 1e+07 C200 <= 6
 R16: C193 >= 0
 R17: C194 >= 0
 R18: C195 >= 0
 R19: C196 >= 0
 R20: C197 >= 0
 R21: C198 >= 0
 R22: C199 >= 0
 R23: C200 >= 0
 assignment_job0_stage0_constraint: y[0,0,3] + y[0,0,4] = 1
 assignment_job0_stage1_constraint: y[0,1,0] + y[0,1,2] = 1
 assignment_job0_stage2_constraint: y[0,2,3] + y[0,2,4] = 1
 assignment_job1_stage0_constraint: y[1,0,2] + y[1,0,3] = 1
 assignment_job1_stage1_constraint: y[1,1,2] + y[1,1,3] = 1
 assignment_job1_stage2_constraint: y[1,2,1] + y[1,2,4] = 1
 assignment_job2_stage0_constraint: y[2,0,1] + y[2,0,4] = 1
 assignment_job2_stage1_constraint: y[2,1,1] + y[2,1,2] = 1
 assignment_job2_stage2_constraint: y[2,2,0] + y[2,2,2] = 1
 assignment_job3_stage0_constraint: y[3,0,1] + y[3,0,4] = 1
 assignment_job3_stage1_constraint: y[3,1,0] + y[3,1,2] = 1
 assignment_job3_stage2_constraint: y[3,2,0] + y[3,2,2] = 1
 start_time_job0_stage0_machine3_constraint1: - 1e+07 y[0,0,3] + s[0,0,3]
   <= 0
 start_time_job0_stage0_machine4_constraint1: - 1e+07 y[0,0,4] + s[0,0,4]
   <= 0
 start_time_job0_stage1_machine0_constraint1: - 1e+07 y[0,1,0] + s[0,1,0]
   <= 0
 start_time_job0_stage1_machine2_constraint1: - 1e+07 y[0,1,2] + s[0,1,2]
   <= 0
 start_time_job0_stage2_machine3_constraint1: - 1e+07 y[0,2,3] + s[0,2,3]
   <= 0
 start_time_job0_stage2_machine4_constraint1: - 1e+07 y[0,2,4] + s[0,2,4]
   <= 0
 start_time_job1_stage0_machine2_constraint1: - 1e+07 y[1,0,2] + s[1,0,2]
   <= 0
 start_time_job1_stage0_machine3_constraint1: - 1e+07 y[1,0,3] + s[1,0,3]
   <= 0
 start_time_job1_stage1_machine2_constraint1: - 1e+07 y[1,1,2] + s[1,1,2]
   <= 0
 start_time_job1_stage1_machine3_constraint1: - 1e+07 y[1,1,3] + s[1,1,3]
   <= 0
 start_time_job1_stage2_machine1_constraint1: - 1e+07 y[1,2,1] + s[1,2,1]
   <= 0
 start_time_job1_stage2_machine4_constraint1: - 1e+07 y[1,2,4] + s[1,2,4]
   <= 0
 start_time_job2_stage0_machine1_constraint1: - 1e+07 y[2,0,1] + s[2,0,1]
   <= 0
 start_time_job2_stage0_machine4_constraint1: - 1e+07 y[2,0,4] + s[2,0,4]
   <= 0
 start_time_job2_stage1_machine1_constraint1: - 1e+07 y[2,1,1] + s[2,1,1]
   <= 0
 start_time_job2_stage1_machine2_constraint1: - 1e+07 y[2,1,2] + s[2,1,2]
   <= 0
 start_time_job2_stage2_machine0_constraint1: - 1e+07 y[2,2,0] + s[2,2,0]
   <= 0
 start_time_job2_stage2_machine2_constraint1: - 1e+07 y[2,2,2] + s[2,2,2]
   <= 0
 start_time_job3_stage0_machine1_constraint1: - 1e+07 y[3,0,1] + s[3,0,1]
   <= 0
 start_time_job3_stage0_machine4_constraint1: - 1e+07 y[3,0,4] + s[3,0,4]
   <= 0
 start_time_job3_stage1_machine0_constraint1: - 1e+07 y[3,1,0] + s[3,1,0]
   <= 0
 start_time_job3_stage1_machine2_constraint1: - 1e+07 y[3,1,2] + s[3,1,2]
   <= 0
 start_time_job3_stage2_machine0_constraint1: - 1e+07 y[3,2,0] + s[3,2,0]
   <= 0
 start_time_job3_stage2_machine2_constraint1: - 1e+07 y[3,2,2] + s[3,2,2]
   <= 0
 R60: - 4 y[0,1,0] - 5 y[0,1,2] + s[0,0,3] + s[0,0,4] - s[0,1,0] - s[0,1,2]
   >= 0
 R61: - 3 y[0,2,3] - 4 y[0,2,4] + s[0,1,0] + s[0,1,2] - s[0,2,3] - s[0,2,4]
   >= 0
 R62: - 2 y[1,1,2] - 4 y[1,1,3] + s[1,0,2] + s[1,0,3] - s[1,1,2] - s[1,1,3]
   >= 0
 R63: - 2 y[1,2,1] - 2 y[1,2,4] + s[1,1,2] + s[1,1,3] - s[1,2,1] - s[1,2,4]
   >= 0
 R64: - 4 y[2,1,1] - 5 y[2,1,2] + s[2,0,1] + s[2,0,4] - s[2,1,1] - s[2,1,2]
   >= 0
 R65: - 3 y[2,2,0] - 4 y[2,2,2] + s[2,0,1] + s[2,0,4] - s[2,2,0] - s[2,2,2]
   >= 0
 R66: - 3 y[3,1,0] - 3 y[3,1,2] + s[3,0,1] + s[3,0,4] - s[3,1,0] - s[3,1,2]
   >= 0
 R67: - 3 y[3,2,0] - 5 y[3,2,2] + s[3,1,0] + s[3,1,2] - s[3,2,0] - s[3,2,2]
   >= 0
 precedence_between_0,0_to_0,2_if_x_[0,0,0,2,3]=0,_i.e._0,2_before_0,0:
   - 1e+07 y[0,0,3] - 1e+07 y[0,2,3] + 1e+07 x[0,0,0,2] - s[0,0,3]
   + s[0,2,3] >= -1.9999991e+07
 precedence_between_0,2_to_0,0_if_x_[0,0,0,2,3]=1,_i.e._0,0_before_0,2:
   - 1e+07 y[0,0,3] - 1e+07 y[0,2,3] - 1e+07 x[0,0,0,2] + s[0,0,3]
   - s[0,2,3] >= -2.9999977e+07
 precedence_between_0,0_to_0,2_if_x_[0,0,0,2,4]=0,_i.e._0,2_before_0,0:
   - 1e+07 y[0,0,4] - 1e+07 y[0,2,4] + 1e+07 x[0,0,0,2] - s[0,0,4]
   + s[0,2,4] >= -1.9999978e+07
 precedence_between_0,2_to_0,0_if_x_[0,0,0,2,4]=1,_i.e._0,0_before_0,2:
   - 1e+07 y[0,0,4] - 1e+07 y[0,2,4] - 1e+07 x[0,0,0,2] + s[0,0,4]
   - s[0,2,4] >= -2.9999976e+07
 precedence_between_0,0_to_1,0_if_x_[0,0,1,0,3]=0,_i.e._1,0_before_0,0:
   - 1e+07 y[0,0,3] - 1e+07 y[1,0,3] + 1e+07 x[0,0,1,0] - s[0,0,3]
   + s[1,0,3] >= -1.9999991e+07
 precedence_between_1,0_to_0,0_if_x_[0,0,1,0,3]=1,_i.e._0,0_before_1,0:
   - 1e+07 y[0,0,3] - 1e+07 y[1,0,3] - 1e+07 x[0,0,1,0] + s[0,0,3]
   - s[1,0,3] >= -2.999998e+07
 precedence_between_0,0_to_1,1_if_x_[0,0,1,1,3]=0,_i.e._1,1_before_0,0:
   - 1e+07 y[0,0,3] - 1e+07 y[1,1,3] + 1e+07 x[0,0,1,1] - s[0,0,3]
   + s[1,1,3] >= -1.999998e+07
 precedence_between_1,1_to_0,0_if_x_[0,0,1,1,3]=1,_i.e._0,0_before_1,1:
   - 1e+07 y[0,0,3] - 1e+07 y[1,1,3] - 1e+07 x[0,0,1,1] + s[0,0,3]
   - s[1,1,3] >= -2.9999992e+07
 precedence_between_0,0_to_1,2_if_x_[0,0,1,2,4]=0,_i.e._1,2_before_0,0:
   - 1e+07 y[0,0,4] - 1e+07 y[1,2,4] + 1e+07 x[0,0,1,2] - s[0,0,4]
   + s[1,2,4] >= -1.9999978e+07
 precedence_between_1,2_to_0,0_if_x_[0,0,1,2,4]=1,_i.e._0,0_before_1,2:
   - 1e+07 y[0,0,4] - 1e+07 y[1,2,4] - 1e+07 x[0,0,1,2] + s[0,0,4]
   - s[1,2,4] >= -2.9999986e+07
 precedence_between_0,0_to_2,0_if_x_[0,0,2,0,4]=0,_i.e._2,0_before_0,0:
   - 1e+07 y[0,0,4] - 1e+07 y[2,0,4] + 1e+07 x[0,0,2,0] - s[0,0,4]
   + s[2,0,4] >= -1.999999e+07
 precedence_between_2,0_to_0,0_if_x_[0,0,2,0,4]=1,_i.e._0,0_before_2,0:
   - 1e+07 y[0,0,4] - 1e+07 y[2,0,4] - 1e+07 x[0,0,2,0] + s[0,0,4]
   - s[2,0,4] >= -2.9999986e+07
 precedence_between_0,0_to_3,0_if_x_[0,0,3,0,4]=0,_i.e._3,0_before_0,0:
   - 1e+07 y[0,0,4] - 1e+07 y[3,0,4] + 1e+07 x[0,0,3,0] - s[0,0,4]
   + s[3,0,4] >= -1.9999973e+07
 precedence_between_3,0_to_0,0_if_x_[0,0,3,0,4]=1,_i.e._0,0_before_3,0:
   - 1e+07 y[0,0,4] - 1e+07 y[3,0,4] - 1e+07 x[0,0,3,0] + s[0,0,4]
   - s[3,0,4] >= -2.9999994e+07
 precedence_between_0,1_to_1,0_if_x_[0,1,1,0,2]=0,_i.e._1,0_before_0,1:
   - 1e+07 y[0,1,2] - 1e+07 y[1,0,2] + 1e+07 x[0,1,1,0] - s[0,1,2]
   + s[1,0,2] >= -1.9999989e+07
 precedence_between_1,0_to_0,1_if_x_[0,1,1,0,2]=1,_i.e._0,1_before_1,0:
   - 1e+07 y[0,1,2] - 1e+07 y[1,0,2] - 1e+07 x[0,1,1,0] + s[0,1,2]
   - s[1,0,2] >= -2.9999993e+07
 precedence_between_0,1_to_1,1_if_x_[0,1,1,1,2]=0,_i.e._1,1_before_0,1:
   - 1e+07 y[0,1,2] - 1e+07 y[1,1,2] + 1e+07 x[0,1,1,1] - s[0,1,2]
   + s[1,1,2] >= -1.9999991e+07
 precedence_between_1,1_to_0,1_if_x_[0,1,1,1,2]=1,_i.e._0,1_before_1,1:
   - 1e+07 y[0,1,2] - 1e+07 y[1,1,2] - 1e+07 x[0,1,1,1] + s[0,1,2]
   - s[1,1,2] >= -2.9999993e+07
 precedence_between_0,1_to_2,1_if_x_[0,1,2,1,2]=0,_i.e._2,1_before_0,1:
   - 1e+07 y[0,1,2] - 1e+07 y[2,1,2] + 1e+07 x[0,1,2,1] - s[0,1,2]
   + s[2,1,2] >= -1.9999987e+07
 precedence_between_2,1_to_0,1_if_x_[0,1,2,1,2]=1,_i.e._0,1_before_2,1:
   - 1e+07 y[0,1,2] - 1e+07 y[2,1,2] - 1e+07 x[0,1,2,1] + s[0,1,2]
   - s[2,1,2] >= -2.999998e+07
 precedence_between_0,1_to_2,2_if_x_[0,1,2,2,0]=0,_i.e._2,2_before_0,1:
   - 1e+07 y[0,1,0] - 1e+07 y[2,2,0] + 1e+07 x[0,1,2,2] - s[0,1,0]
   + s[2,2,0] >= -1.9999993e+07
 precedence_between_2,2_to_0,1_if_x_[0,1,2,2,0]=1,_i.e._0,1_before_2,2:
   - 1e+07 y[0,1,0] - 1e+07 y[2,2,0] - 1e+07 x[0,1,2,2] + s[0,1,0]
   - s[2,2,0] >= -2.9999988e+07
 precedence_between_0,1_to_2,2_if_x_[0,1,2,2,2]=0,_i.e._2,2_before_0,1:
   - 1e+07 y[0,1,2] - 1e+07 y[2,2,2] + 1e+07 x[0,1,2,2] - s[0,1,2]
   + s[2,2,2] >= -1.9999991e+07
 precedence_between_2,2_to_0,1_if_x_[0,1,2,2,2]=1,_i.e._0,1_before_2,2:
   - 1e+07 y[0,1,2] - 1e+07 y[2,2,2] - 1e+07 x[0,1,2,2] + s[0,1,2]
   - s[2,2,2] >= -2.9999976e+07
 precedence_between_0,1_to_3,1_if_x_[0,1,3,1,0]=0,_i.e._3,1_before_0,1:
   - 1e+07 y[0,1,0] - 1e+07 y[3,1,0] + 1e+07 x[0,1,3,1] - s[0,1,0]
   + s[3,1,0] >= -1.9999991e+07
 precedence_between_3,1_to_0,1_if_x_[0,1,3,1,0]=1,_i.e._0,1_before_3,1:
   - 1e+07 y[0,1,0] - 1e+07 y[3,1,0] - 1e+07 x[0,1,3,1] + s[0,1,0]
   - s[3,1,0] >= -2.9999993e+07
 precedence_between_0,1_to_3,1_if_x_[0,1,3,1,2]=0,_i.e._3,1_before_0,1:
   - 1e+07 y[0,1,2] - 1e+07 y[3,1,2] + 1e+07 x[0,1,3,1] - s[0,1,2]
   + s[3,1,2] >= -1.9999975e+07
 precedence_between_3,1_to_0,1_if_x_[0,1,3,1,2]=1,_i.e._0,1_before_3,1:
   - 1e+07 y[0,1,2] - 1e+07 y[3,1,2] - 1e+07 x[0,1,3,1] + s[0,1,2]
   - s[3,1,2] >= -2.9999989e+07
 precedence_between_0,1_to_3,2_if_x_[0,1,3,2,0]=0,_i.e._3,2_before_0,1:
   - 1e+07 y[0,1,0] - 1e+07 y[3,2,0] + 1e+07 x[0,1,3,2] - s[0,1,0]
   + s[3,2,0] >= -1.9999981e+07
 precedence_between_3,2_to_0,1_if_x_[0,1,3,2,0]=1,_i.e._0,1_before_3,2:
   - 1e+07 y[0,1,0] - 1e+07 y[3,2,0] - 1e+07 x[0,1,3,2] + s[0,1,0]
   - s[3,2,0] >= -2.9999987e+07
 precedence_between_0,1_to_3,2_if_x_[0,1,3,2,2]=0,_i.e._3,2_before_0,1:
   - 1e+07 y[0,1,2] - 1e+07 y[3,2,2] + 1e+07 x[0,1,3,2] - s[0,1,2]
   + s[3,2,2] >= -1.9999985e+07
 precedence_between_3,2_to_0,1_if_x_[0,1,3,2,2]=1,_i.e._0,1_before_3,2:
   - 1e+07 y[0,1,2] - 1e+07 y[3,2,2] - 1e+07 x[0,1,3,2] + s[0,1,2]
   - s[3,2,2] >= -2.9999975e+07
 precedence_between_0,2_to_0,0_if_x_[0,2,0,0,3]=0,_i.e._0,0_before_0,2:
   - 1e+07 y[0,0,3] - 1e+07 y[0,2,3] + 1e+07 x[0,2,0,0] + s[0,0,3]
   - s[0,2,3] >= -1.9999977e+07
 precedence_between_0,0_to_0,2_if_x_[0,2,0,0,3]=1,_i.e._0,2_before_0,0:
   - 1e+07 y[0,0,3] - 1e+07 y[0,2,3] - 1e+07 x[0,2,0,0] - s[0,0,3]
   + s[0,2,3] >= -2.9999991e+07
 precedence_between_0,2_to_0,0_if_x_[0,2,0,0,4]=0,_i.e._0,0_before_0,2:
   - 1e+07 y[0,0,4] - 1e+07 y[0,2,4] + 1e+07 x[0,2,0,0] + s[0,0,4]
   - s[0,2,4] >= -1.9999976e+07
 precedence_between_0,0_to_0,2_if_x_[0,2,0,0,4]=1,_i.e._0,2_before_0,0:
   - 1e+07 y[0,0,4] - 1e+07 y[0,2,4] - 1e+07 x[0,2,0,0] - s[0,0,4]
   + s[0,2,4] >= -2.9999978e+07
 precedence_between_0,2_to_1,0_if_x_[0,2,1,0,3]=0,_i.e._1,0_before_0,2:
   - 1e+07 y[0,2,3] - 1e+07 y[1,0,3] + 1e+07 x[0,2,1,0] - s[0,2,3]
   + s[1,0,3] >= -1.9999981e+07
 precedence_between_1,0_to_0,2_if_x_[0,2,1,0,3]=1,_i.e._0,2_before_1,0:
   - 1e+07 y[0,2,3] - 1e+07 y[1,0,3] - 1e+07 x[0,2,1,0] + s[0,2,3]
   - s[1,0,3] >= -2.9999989e+07
 precedence_between_0,2_to_1,1_if_x_[0,2,1,1,3]=0,_i.e._1,1_before_0,2:
   - 1e+07 y[0,2,3] - 1e+07 y[1,1,3] + 1e+07 x[0,2,1,1] - s[0,2,3]
   + s[1,1,3] >= -1.9999991e+07
 precedence_between_1,1_to_0,2_if_x_[0,2,1,1,3]=1,_i.e._0,2_before_1,1:
   - 1e+07 y[0,2,3] - 1e+07 y[1,1,3] - 1e+07 x[0,2,1,1] + s[0,2,3]
   - s[1,1,3] >= -2.9999986e+07
 precedence_between_0,2_to_1,2_if_x_[0,2,1,2,4]=0,_i.e._1,2_before_0,2:
   - 1e+07 y[0,2,4] - 1e+07 y[1,2,4] + 1e+07 x[0,2,1,2] - s[0,2,4]
   + s[1,2,4] >= -1.9999992e+07
 precedence_between_1,2_to_0,2_if_x_[0,2,1,2,4]=1,_i.e._0,2_before_1,2:
   - 1e+07 y[0,2,4] - 1e+07 y[1,2,4] - 1e+07 x[0,2,1,2] + s[0,2,4]
   - s[1,2,4] >= -2.9999994e+07
 precedence_between_0,2_to_2,0_if_x_[0,2,2,0,4]=0,_i.e._2,0_before_0,2:
   - 1e+07 y[0,2,4] - 1e+07 y[2,0,4] + 1e+07 x[0,2,2,0] - s[0,2,4]
   + s[2,0,4] >= -1.9999993e+07
 precedence_between_2,0_to_0,2_if_x_[0,2,2,0,4]=1,_i.e._0,2_before_2,0:
   - 1e+07 y[0,2,4] - 1e+07 y[2,0,4] - 1e+07 x[0,2,2,0] + s[0,2,4]
   - s[2,0,4] >= -2.9999985e+07
 precedence_between_0,2_to_3,0_if_x_[0,2,3,0,4]=0,_i.e._3,0_before_0,2:
   - 1e+07 y[0,2,4] - 1e+07 y[3,0,4] + 1e+07 x[0,2,3,0] - s[0,2,4]
   + s[3,0,4] >= -1.9999987e+07
 precedence_between_3,0_to_0,2_if_x_[0,2,3,0,4]=1,_i.e._0,2_before_3,0:
   - 1e+07 y[0,2,4] - 1e+07 y[3,0,4] - 1e+07 x[0,2,3,0] + s[0,2,4]
   - s[3,0,4] >= -2.9999996e+07
 precedence_between_1,0_to_1,1_if_x_[1,0,1,1,2]=0,_i.e._1,1_before_1,0:
   - 1e+07 y[1,0,2] - 1e+07 y[1,1,2] + 1e+07 x[1,0,1,1] - s[1,0,2]
   + s[1,1,2] >= -1.9999991e+07
 precedence_between_1,1_to_1,0_if_x_[1,0,1,1,2]=1,_i.e._1,0_before_1,1:
   - 1e+07 y[1,0,2] - 1e+07 y[1,1,2] - 1e+07 x[1,0,1,1] + s[1,0,2]
   - s[1,1,2] >= -2.9999992e+07
 precedence_between_1,0_to_1,1_if_x_[1,0,1,1,3]=0,_i.e._1,1_before_1,0:
   - 1e+07 y[1,0,3] - 1e+07 y[1,1,3] + 1e+07 x[1,0,1,1] - s[1,0,3]
   + s[1,1,3] >= -1.9999987e+07
 precedence_between_1,1_to_1,0_if_x_[1,0,1,1,3]=1,_i.e._1,0_before_1,1:
   - 1e+07 y[1,0,3] - 1e+07 y[1,1,3] - 1e+07 x[1,0,1,1] + s[1,0,3]
   - s[1,1,3] >= -2.9999992e+07
 precedence_between_1,0_to_2,1_if_x_[1,0,2,1,2]=0,_i.e._2,1_before_1,0:
   - 1e+07 y[1,0,2] - 1e+07 y[2,1,2] + 1e+07 x[1,0,2,1] - s[1,0,2]
   + s[2,1,2] >= -1.9999989e+07
 precedence_between_2,1_to_1,0_if_x_[1,0,2,1,2]=1,_i.e._1,0_before_2,1:
   - 1e+07 y[1,0,2] - 1e+07 y[2,1,2] - 1e+07 x[1,0,2,1] + s[1,0,2]
   - s[2,1,2] >= -2.9999987e+07
 precedence_between_1,0_to_2,2_if_x_[1,0,2,2,2]=0,_i.e._2,2_before_1,0:
   - 1e+07 y[1,0,2] - 1e+07 y[2,2,2] + 1e+07 x[1,0,2,2] - s[1,0,2]
   + s[2,2,2] >= -1.9999993e+07
 precedence_between_2,2_to_1,0_if_x_[1,0,2,2,2]=1,_i.e._1,0_before_2,2:
   - 1e+07 y[1,0,2] - 1e+07 y[2,2,2] - 1e+07 x[1,0,2,2] + s[1,0,2]
   - s[2,2,2] >= -2.9999986e+07
 precedence_between_1,0_to_3,1_if_x_[1,0,3,1,2]=0,_i.e._3,1_before_1,0:
   - 1e+07 y[1,0,2] - 1e+07 y[3,1,2] + 1e+07 x[1,0,3,1] - s[1,0,2]
   + s[3,1,2] >= -1.9999989e+07
 precedence_between_3,1_to_1,0_if_x_[1,0,3,1,2]=1,_i.e._1,0_before_3,1:
   - 1e+07 y[1,0,2] - 1e+07 y[3,1,2] - 1e+07 x[1,0,3,1] + s[1,0,2]
   - s[3,1,2] >= -2.9999994e+07
 precedence_between_1,0_to_3,2_if_x_[1,0,3,2,2]=0,_i.e._3,2_before_1,0:
   - 1e+07 y[1,0,2] - 1e+07 y[3,2,2] + 1e+07 x[1,0,3,2] - s[1,0,2]
   + s[3,2,2] >= -1.999999e+07
 precedence_between_3,2_to_1,0_if_x_[1,0,3,2,2]=1,_i.e._1,0_before_3,2:
   - 1e+07 y[1,0,2] - 1e+07 y[3,2,2] - 1e+07 x[1,0,3,2] + s[1,0,2]
   - s[3,2,2] >= -2.9999992e+07
 precedence_between_1,1_to_1,0_if_x_[1,1,1,0,2]=0,_i.e._1,0_before_1,1:
   - 1e+07 y[1,0,2] - 1e+07 y[1,1,2] + 1e+07 x[1,1,1,0] + s[1,0,2]
   - s[1,1,2] >= -1.9999992e+07
 precedence_between_1,0_to_1,1_if_x_[1,1,1,0,2]=1,_i.e._1,1_before_1,0:
   - 1e+07 y[1,0,2] - 1e+07 y[1,1,2] - 1e+07 x[1,1,1,0] - s[1,0,2]
   + s[1,1,2] >= -2.9999991e+07
 precedence_between_1,1_to_1,0_if_x_[1,1,1,0,3]=0,_i.e._1,0_before_1,1:
   - 1e+07 y[1,0,3] - 1e+07 y[1,1,3] + 1e+07 x[1,1,1,0] + s[1,0,3]
   - s[1,1,3] >= -1.9999992e+07
 precedence_between_1,0_to_1,1_if_x_[1,1,1,0,3]=1,_i.e._1,1_before_1,0:
   - 1e+07 y[1,0,3] - 1e+07 y[1,1,3] - 1e+07 x[1,1,1,0] - s[1,0,3]
   + s[1,1,3] >= -2.9999987e+07
 precedence_between_1,1_to_2,1_if_x_[1,1,2,1,2]=0,_i.e._2,1_before_1,1:
   - 1e+07 y[1,1,2] - 1e+07 y[2,1,2] + 1e+07 x[1,1,2,1] - s[1,1,2]
   + s[2,1,2] >= -1.9999993e+07
 precedence_between_2,1_to_1,1_if_x_[1,1,2,1,2]=1,_i.e._1,1_before_2,1:
   - 1e+07 y[1,1,2] - 1e+07 y[2,1,2] - 1e+07 x[1,1,2,1] + s[1,1,2]
   - s[2,1,2] >= -2.9999992e+07
 precedence_between_1,1_to_2,2_if_x_[1,1,2,2,2]=0,_i.e._2,2_before_1,1:
   - 1e+07 y[1,1,2] - 1e+07 y[2,2,2] + 1e+07 x[1,1,2,2] - s[1,1,2]
   + s[2,2,2] >= -1.9999996e+07
 precedence_between_2,2_to_1,1_if_x_[1,1,2,2,2]=1,_i.e._1,1_before_2,2:
   - 1e+07 y[1,1,2] - 1e+07 y[2,2,2] - 1e+07 x[1,1,2,2] + s[1,1,2]
   - s[2,2,2] >= -2.9999991e+07
 precedence_between_1,1_to_3,1_if_x_[1,1,3,1,2]=0,_i.e._3,1_before_1,1:
   - 1e+07 y[1,1,2] - 1e+07 y[3,1,2] + 1e+07 x[1,1,3,1] - s[1,1,2]
   + s[3,1,2] >= -1.9999986e+07
 precedence_between_3,1_to_1,1_if_x_[1,1,3,1,2]=1,_i.e._1,1_before_3,1:
   - 1e+07 y[1,1,2] - 1e+07 y[3,1,2] - 1e+07 x[1,1,3,1] + s[1,1,2]
   - s[3,1,2] >= -2.9999991e+07
 precedence_between_1,1_to_3,2_if_x_[1,1,3,2,2]=0,_i.e._3,2_before_1,1:
   - 1e+07 y[1,1,2] - 1e+07 y[3,2,2] + 1e+07 x[1,1,3,2] - s[1,1,2]
   + s[3,2,2] >= -1.9999986e+07
 precedence_between_3,2_to_1,1_if_x_[1,1,3,2,2]=1,_i.e._1,1_before_3,2:
   - 1e+07 y[1,1,2] - 1e+07 y[3,2,2] - 1e+07 x[1,1,3,2] + s[1,1,2]
   - s[3,2,2] >= -2.9999987e+07
 precedence_between_1,2_to_2,0_if_x_[1,2,2,0,1]=0,_i.e._2,0_before_1,2:
   - 1e+07 y[1,2,1] - 1e+07 y[2,0,1] + 1e+07 x[1,2,2,0] - s[1,2,1]
   + s[2,0,1] >= -1.9999993e+07
 precedence_between_2,0_to_1,2_if_x_[1,2,2,0,1]=1,_i.e._1,2_before_2,0:
   - 1e+07 y[1,2,1] - 1e+07 y[2,0,1] - 1e+07 x[1,2,2,0] + s[1,2,1]
   - s[2,0,1] >= -2.999999e+07
 precedence_between_1,2_to_2,0_if_x_[1,2,2,0,4]=0,_i.e._2,0_before_1,2:
   - 1e+07 y[1,2,4] - 1e+07 y[2,0,4] + 1e+07 x[1,2,2,0] - s[1,2,4]
   + s[2,0,4] >= -1.9999994e+07
 precedence_between_2,0_to_1,2_if_x_[1,2,2,0,4]=1,_i.e._1,2_before_2,0:
   - 1e+07 y[1,2,4] - 1e+07 y[2,0,4] - 1e+07 x[1,2,2,0] + s[1,2,4]
   - s[2,0,4] >= -2.9999989e+07
 precedence_between_1,2_to_2,1_if_x_[1,2,2,1,1]=0,_i.e._2,1_before_1,2:
   - 1e+07 y[1,2,1] - 1e+07 y[2,1,1] + 1e+07 x[1,2,2,1] - s[1,2,1]
   + s[2,1,1] >= -1.9999978e+07
 precedence_between_2,1_to_1,2_if_x_[1,2,2,1,1]=1,_i.e._1,2_before_2,1:
   - 1e+07 y[1,2,1] - 1e+07 y[2,1,1] - 1e+07 x[1,2,2,1] + s[1,2,1]
   - s[2,1,1] >= -2.9999987e+07
 precedence_between_1,2_to_3,0_if_x_[1,2,3,0,1]=0,_i.e._3,0_before_1,2:
   - 1e+07 y[1,2,1] - 1e+07 y[3,0,1] + 1e+07 x[1,2,3,0] - s[1,2,1]
   + s[3,0,1] >= -1.9999978e+07
 precedence_between_3,0_to_1,2_if_x_[1,2,3,0,1]=1,_i.e._1,2_before_3,0:
   - 1e+07 y[1,2,1] - 1e+07 y[3,0,1] - 1e+07 x[1,2,3,0] + s[1,2,1]
   - s[3,0,1] >= -2.9999993e+07
 precedence_between_1,2_to_3,0_if_x_[1,2,3,0,4]=0,_i.e._3,0_before_1,2:
   - 1e+07 y[1,2,4] - 1e+07 y[3,0,4] + 1e+07 x[1,2,3,0] - s[1,2,4]
   + s[3,0,4] >= -1.9999983e+07
 precedence_between_3,0_to_1,2_if_x_[1,2,3,0,4]=1,_i.e._1,2_before_3,0:
   - 1e+07 y[1,2,4] - 1e+07 y[3,0,4] - 1e+07 x[1,2,3,0] + s[1,2,4]
   - s[3,0,4] >= -2.9999983e+07
 precedence_between_2,0_to_2,1_if_x_[2,0,2,1,1]=0,_i.e._2,1_before_2,0:
   - 1e+07 y[2,0,1] - 1e+07 y[2,1,1] + 1e+07 x[2,0,2,1] - s[2,0,1]
   + s[2,1,1] >= -1.9999982e+07
 precedence_between_2,1_to_2,0_if_x_[2,0,2,1,1]=1,_i.e._2,0_before_2,1:
   - 1e+07 y[2,0,1] - 1e+07 y[2,1,1] - 1e+07 x[2,0,2,1] + s[2,0,1]
   - s[2,1,1] >= -2.999999e+07
 precedence_between_2,0_to_3,0_if_x_[2,0,3,0,1]=0,_i.e._3,0_before_2,0:
   - 1e+07 y[2,0,1] - 1e+07 y[3,0,1] + 1e+07 x[2,0,3,0] - s[2,0,1]
   + s[3,0,1] >= -1.9999978e+07
 precedence_between_3,0_to_2,0_if_x_[2,0,3,0,1]=1,_i.e._2,0_before_3,0:
   - 1e+07 y[2,0,1] - 1e+07 y[3,0,1] - 1e+07 x[2,0,3,0] + s[2,0,1]
   - s[3,0,1] >= -2.9999985e+07
 precedence_between_2,0_to_3,0_if_x_[2,0,3,0,4]=0,_i.e._3,0_before_2,0:
   - 1e+07 y[2,0,4] - 1e+07 y[3,0,4] + 1e+07 x[2,0,3,0] - s[2,0,4]
   + s[3,0,4] >= -1.9999986e+07
 precedence_between_3,0_to_2,0_if_x_[2,0,3,0,4]=1,_i.e._2,0_before_3,0:
   - 1e+07 y[2,0,4] - 1e+07 y[3,0,4] - 1e+07 x[2,0,3,0] + s[2,0,4]
   - s[3,0,4] >= -2.9999994e+07
 precedence_between_2,1_to_2,0_if_x_[2,1,2,0,1]=0,_i.e._2,0_before_2,1:
   - 1e+07 y[2,0,1] - 1e+07 y[2,1,1] + 1e+07 x[2,1,2,0] + s[2,0,1]
   - s[2,1,1] >= -1.999999e+07
 precedence_between_2,0_to_2,1_if_x_[2,1,2,0,1]=1,_i.e._2,1_before_2,0:
   - 1e+07 y[2,0,1] - 1e+07 y[2,1,1] - 1e+07 x[2,1,2,0] - s[2,0,1]
   + s[2,1,1] >= -2.9999982e+07
 precedence_between_2,1_to_2,2_if_x_[2,1,2,2,2]=0,_i.e._2,2_before_2,1:
   - 1e+07 y[2,1,2] - 1e+07 y[2,2,2] + 1e+07 x[2,1,2,2] - s[2,1,2]
   + s[2,2,2] >= -1.999999e+07
 precedence_between_2,2_to_2,1_if_x_[2,1,2,2,2]=1,_i.e._2,1_before_2,2:
   - 1e+07 y[2,1,2] - 1e+07 y[2,2,2] - 1e+07 x[2,1,2,2] + s[2,1,2]
   - s[2,2,2] >= -2.9999984e+07
 precedence_between_2,1_to_3,0_if_x_[2,1,3,0,1]=0,_i.e._3,0_before_2,1:
   - 1e+07 y[2,1,1] - 1e+07 y[3,0,1] + 1e+07 x[2,1,3,0] - s[2,1,1]
   + s[3,0,1] >= -1.9999971e+07
 precedence_between_3,0_to_2,1_if_x_[2,1,3,0,1]=1,_i.e._2,1_before_3,0:
   - 1e+07 y[2,1,1] - 1e+07 y[3,0,1] - 1e+07 x[2,1,3,0] + s[2,1,1]
   - s[3,0,1] >= -2.9999977e+07
 precedence_between_2,1_to_3,1_if_x_[2,1,3,1,2]=0,_i.e._3,1_before_2,1:
   - 1e+07 y[2,1,2] - 1e+07 y[3,1,2] + 1e+07 x[2,1,3,1] - s[2,1,2]
   + s[3,1,2] >= -1.9999992e+07
 precedence_between_3,1_to_2,1_if_x_[2,1,3,1,2]=1,_i.e._2,1_before_3,1:
   - 1e+07 y[2,1,2] - 1e+07 y[3,1,2] - 1e+07 x[2,1,3,1] + s[2,1,2]
   - s[3,1,2] >= -2.9999995e+07
 precedence_between_2,1_to_3,2_if_x_[2,1,3,2,2]=0,_i.e._3,2_before_2,1:
   - 1e+07 y[2,1,2] - 1e+07 y[3,2,2] + 1e+07 x[2,1,3,2] - s[2,1,2]
   + s[3,2,2] >= -1.9999987e+07
 precedence_between_3,2_to_2,1_if_x_[2,1,3,2,2]=1,_i.e._2,1_before_3,2:
   - 1e+07 y[2,1,2] - 1e+07 y[3,2,2] - 1e+07 x[2,1,3,2] + s[2,1,2]
   - s[3,2,2] >= -2.9999983e+07
 precedence_between_2,2_to_2,1_if_x_[2,2,2,1,2]=0,_i.e._2,1_before_2,2:
   - 1e+07 y[2,1,2] - 1e+07 y[2,2,2] + 1e+07 x[2,2,2,1] + s[2,1,2]
   - s[2,2,2] >= -1.9999984e+07
 precedence_between_2,1_to_2,2_if_x_[2,2,2,1,2]=1,_i.e._2,2_before_2,1:
   - 1e+07 y[2,1,2] - 1e+07 y[2,2,2] - 1e+07 x[2,2,2,1] - s[2,1,2]
   + s[2,2,2] >= -2.999999e+07
 precedence_between_2,2_to_3,1_if_x_[2,2,3,1,0]=0,_i.e._3,1_before_2,2:
   - 1e+07 y[2,2,0] - 1e+07 y[3,1,0] + 1e+07 x[2,2,3,1] - s[2,2,0]
   + s[3,1,0] >= -1.9999987e+07
 precedence_between_3,1_to_2,2_if_x_[2,2,3,1,0]=1,_i.e._2,2_before_3,1:
   - 1e+07 y[2,2,0] - 1e+07 y[3,1,0] - 1e+07 x[2,2,3,1] + s[2,2,0]
   - s[3,1,0] >= -2.9999989e+07
 precedence_between_2,2_to_3,1_if_x_[2,2,3,1,2]=0,_i.e._3,1_before_2,2:
   - 1e+07 y[2,2,2] - 1e+07 y[3,1,2] + 1e+07 x[2,2,3,1] - s[2,2,2]
   + s[3,1,2] >= -1.9999992e+07
 precedence_between_3,1_to_2,2_if_x_[2,2,3,1,2]=1,_i.e._2,2_before_3,1:
   - 1e+07 y[2,2,2] - 1e+07 y[3,1,2] - 1e+07 x[2,2,3,1] + s[2,2,2]
   - s[3,1,2] >= -2.9999977e+07
 precedence_between_2,2_to_3,2_if_x_[2,2,3,2,0]=0,_i.e._3,2_before_2,2:
   - 1e+07 y[2,2,0] - 1e+07 y[3,2,0] + 1e+07 x[2,2,3,2] - s[2,2,0]
   + s[3,2,0] >= -1.9999977e+07
 precedence_between_3,2_to_2,2_if_x_[2,2,3,2,0]=1,_i.e._2,2_before_3,2:
   - 1e+07 y[2,2,0] - 1e+07 y[3,2,0] - 1e+07 x[2,2,3,2] + s[2,2,0]
   - s[3,2,0] >= -2.9999991e+07
 precedence_between_2,2_to_3,2_if_x_[2,2,3,2,2]=0,_i.e._3,2_before_2,2:
   - 1e+07 y[2,2,2] - 1e+07 y[3,2,2] + 1e+07 x[2,2,3,2] - s[2,2,2]
   + s[3,2,2] >= -1.999999e+07
 precedence_between_3,2_to_2,2_if_x_[2,2,3,2,2]=1,_i.e._2,2_before_3,2:
   - 1e+07 y[2,2,2] - 1e+07 y[3,2,2] - 1e+07 x[2,2,3,2] + s[2,2,2]
   - s[3,2,2] >= -2.9999989e+07
 precedence_between_3,1_to_3,2_if_x_[3,1,3,2,0]=0,_i.e._3,2_before_3,1:
   - 1e+07 y[3,1,0] - 1e+07 y[3,2,0] + 1e+07 x[3,1,3,2] - s[3,1,0]
   + s[3,2,0] >= -1.9999977e+07
 precedence_between_3,2_to_3,1_if_x_[3,1,3,2,0]=1,_i.e._3,1_before_3,2:
   - 1e+07 y[3,1,0] - 1e+07 y[3,2,0] - 1e+07 x[3,1,3,2] + s[3,1,0]
   - s[3,2,0] >= -2.9999993e+07
 precedence_between_3,1_to_3,2_if_x_[3,1,3,2,2]=0,_i.e._3,2_before_3,1:
   - 1e+07 y[3,1,2] - 1e+07 y[3,2,2] + 1e+07 x[3,1,3,2] - s[3,1,2]
   + s[3,2,2] >= -1.9999988e+07
 precedence_between_3,2_to_3,1_if_x_[3,1,3,2,2]=1,_i.e._3,1_before_3,2:
   - 1e+07 y[3,1,2] - 1e+07 y[3,2,2] - 1e+07 x[3,1,3,2] + s[3,1,2]
   - s[3,2,2] >= -2.9999989e+07
 precedence_between_3,2_to_3,1_if_x_[3,2,3,1,0]=0,_i.e._3,1_before_3,2:
   - 1e+07 y[3,1,0] - 1e+07 y[3,2,0] + 1e+07 x[3,2,3,1] + s[3,1,0]
   - s[3,2,0] >= -1.9999993e+07
 precedence_between_3,1_to_3,2_if_x_[3,2,3,1,0]=1,_i.e._3,2_before_3,1:
   - 1e+07 y[3,1,0] - 1e+07 y[3,2,0] - 1e+07 x[3,2,3,1] - s[3,1,0]
   + s[3,2,0] >= -2.9999977e+07
 precedence_between_3,2_to_3,1_if_x_[3,2,3,1,2]=0,_i.e._3,1_before_3,2:
   - 1e+07 y[3,1,2] - 1e+07 y[3,2,2] + 1e+07 x[3,2,3,1] + s[3,1,2]
   - s[3,2,2] >= -1.9999989e+07
 precedence_between_3,1_to_3,2_if_x_[3,2,3,1,2]=1,_i.e._3,2_before_3,1:
   - 1e+07 y[3,1,2] - 1e+07 y[3,2,2] - 1e+07 x[3,2,3,1] - s[3,1,2]
   + s[3,2,2] >= -2.9999988e+07
 initial_start_time_job0_stage0_machine3_constraint: - y[0,0,3] + s[0,0,3]
   >= 0
 start_time_domain_job0_stage0_machine3_constraint: s[0,0,3] >= 0
 initial_start_time_job0_stage0_machine4_constraint: - y[0,0,4] + s[0,0,4]
   >= 0
 start_time_domain_job0_stage0_machine4_constraint: s[0,0,4] >= 0
 initial_start_time_job0_stage0_machine0_constraint: - 2 y[0,1,0]
   + s[0,1,0] >= 0
 start_time_domain_job0_stage1_machine0_constraint: s[0,1,0] >= 0
 initial_start_time_job0_stage0_machine2_constraint: - 2 y[0,1,2]
   + s[0,1,2] >= 0
 start_time_domain_job0_stage1_machine2_constraint: s[0,1,2] >= 0
 initial_start_time_job0_stage0_machine3_constraint: s[0,2,3] >= 0
 start_time_domain_job0_stage2_machine3_constraint: s[0,2,3] >= 0
 initial_start_time_job0_stage0_machine4_constraint: s[0,2,4] >= 0
 start_time_domain_job0_stage2_machine4_constraint: s[0,2,4] >= 0
 initial_start_time_job1_stage0_machine2_constraint: - 3 y[1,0,2]
   + s[1,0,2] >= 0
 start_time_domain_job1_stage0_machine2_constraint: s[1,0,2] >= 0
 initial_start_time_job1_stage0_machine3_constraint: - 3 y[1,0,3]
   + s[1,0,3] >= 0
 start_time_domain_job1_stage0_machine3_constraint: s[1,0,3] >= 0
 initial_start_time_job1_stage0_machine2_constraint: - y[1,1,2] + s[1,1,2]
   >= 0
 start_time_domain_job1_stage1_machine2_constraint: s[1,1,2] >= 0
 initial_start_time_job1_stage0_machine3_constraint: - y[1,1,3] + s[1,1,3]
   >= 0
 start_time_domain_job1_stage1_machine3_constraint: s[1,1,3] >= 0
 initial_start_time_job1_stage0_machine1_constraint: s[1,2,1] >= 0
 start_time_domain_job1_stage2_machine1_constraint: s[1,2,1] >= 0
 initial_start_time_job1_stage0_machine4_constraint: s[1,2,4] >= 0
 start_time_domain_job1_stage2_machine4_constraint: s[1,2,4] >= 0
 initial_start_time_job2_stage0_machine1_constraint: - 2 y[2,0,1]
   + s[2,0,1] >= 0
 start_time_domain_job2_stage0_machine1_constraint: s[2,0,1] >= 0
 initial_start_time_job2_stage0_machine4_constraint: - 2 y[2,0,4]
   + s[2,0,4] >= 0
 start_time_domain_job2_stage0_machine4_constraint: s[2,0,4] >= 0
 initial_start_time_job2_stage0_machine1_constraint: - y[2,1,1] + s[2,1,1]
   >= 0
 start_time_domain_job2_stage1_machine1_constraint: s[2,1,1] >= 0
 initial_start_time_job2_stage0_machine2_constraint: - y[2,1,2] + s[2,1,2]
   >= 0
 start_time_domain_job2_stage1_machine2_constraint: s[2,1,2] >= 0
 initial_start_time_job2_stage0_machine0_constraint: s[2,2,0] >= 0
 start_time_domain_job2_stage2_machine0_constraint: s[2,2,0] >= 0
 initial_start_time_job2_stage0_machine2_constraint: s[2,2,2] >= 0
 start_time_domain_job2_stage2_machine2_constraint: s[2,2,2] >= 0
 initial_start_time_job3_stage0_machine1_constraint: - 2 y[3,0,1]
   + s[3,0,1] >= 0
 start_time_domain_job3_stage0_machine1_constraint: s[3,0,1] >= 0
 initial_start_time_job3_stage0_machine4_constraint: - 2 y[3,0,4]
   + s[3,0,4] >= 0
 start_time_domain_job3_stage0_machine4_constraint: s[3,0,4] >= 0
 initial_start_time_job3_stage0_machine0_constraint: - 3 y[3,1,0]
   + s[3,1,0] >= 0
 start_time_domain_job3_stage1_machine0_constraint: s[3,1,0] >= 0
 initial_start_time_job3_stage0_machine2_constraint: - 3 y[3,1,2]
   + s[3,1,2] >= 0
 start_time_domain_job3_stage1_machine2_constraint: s[3,1,2] >= 0
 initial_start_time_job3_stage0_machine0_constraint: - 2 y[3,2,0]
   + s[3,2,0] >= 0
 start_time_domain_job3_stage2_machine0_constraint: s[3,2,0] >= 0
 initial_start_time_job3_stage0_machine2_constraint: - 2 y[3,2,2]
   + s[3,2,2] >= 0
 start_time_domain_job3_stage2_machine2_constraint: s[3,2,2] >= 0
 OF_constraint: Z_FO + 7 C193 + 10 C194 + 10 C195 + 10 C196 + 4 C197 + C198
   + 3 C199 + 4 C200 + [ - s[0,0,3] * C193 - s[0,0,4] * C194
   - s[1,0,2] * C195 - s[1,0,3] * C196 - s[2,0,1] * C197 - s[2,0,4] * C198
   - s[3,0,1] * C199 - s[3,0,4] * C200 ] >= 0
Bounds
Binaries
 y[0,0,3] y[0,0,4] y[0,1,0] y[0,1,2] y[0,2,3] y[0,2,4] y[1,0,2] y[1,0,3]
 y[1,1,2] y[1,1,3] y[1,2,1] y[1,2,4] y[2,0,1] y[2,0,4] y[2,1,1] y[2,1,2]
 y[2,2,0] y[2,2,2] y[3,0,1] y[3,0,4] y[3,1,0] y[3,1,2] y[3,2,0] y[3,2,2]
 x[0,0,0,0] x[0,0,0,1] x[0,0,0,2] x[0,0,1,0] x[0,0,1,1] x[0,0,1,2]
 x[0,0,2,0] x[0,0,2,1] x[0,0,2,2] x[0,0,3,0] x[0,0,3,1] x[0,0,3,2]
 x[0,1,0,0] x[0,1,0,1] x[0,1,0,2] x[0,1,1,0] x[0,1,1,1] x[0,1,1,2]
 x[0,1,2,0] x[0,1,2,1] x[0,1,2,2] x[0,1,3,0] x[0,1,3,1] x[0,1,3,2]
 x[0,2,0,0] x[0,2,0,1] x[0,2,0,2] x[0,2,1,0] x[0,2,1,1] x[0,2,1,2]
 x[0,2,2,0] x[0,2,2,1] x[0,2,2,2] x[0,2,3,0] x[0,2,3,1] x[0,2,3,2]
 x[1,0,0,0] x[1,0,0,1] x[1,0,0,2] x[1,0,1,0] x[1,0,1,1] x[1,0,1,2]
 x[1,0,2,0] x[1,0,2,1] x[1,0,2,2] x[1,0,3,0] x[1,0,3,1] x[1,0,3,2]
 x[1,1,0,0] x[1,1,0,1] x[1,1,0,2] x[1,1,1,0] x[1,1,1,1] x[1,1,1,2]
 x[1,1,2,0] x[1,1,2,1] x[1,1,2,2] x[1,1,3,0] x[1,1,3,1] x[1,1,3,2]
 x[1,2,0,0] x[1,2,0,1] x[1,2,0,2] x[1,2,1,0] x[1,2,1,1] x[1,2,1,2]
 x[1,2,2,0] x[1,2,2,1] x[1,2,2,2] x[1,2,3,0] x[1,2,3,1] x[1,2,3,2]
 x[2,0,0,0] x[2,0,0,1] x[2,0,0,2] x[2,0,1,0] x[2,0,1,1] x[2,0,1,2]
 x[2,0,2,0] x[2,0,2,1] x[2,0,2,2] x[2,0,3,0] x[2,0,3,1] x[2,0,3,2]
 x[2,1,0,0] x[2,1,0,1] x[2,1,0,2] x[2,1,1,0] x[2,1,1,1] x[2,1,1,2]
 x[2,1,2,0] x[2,1,2,1] x[2,1,2,2] x[2,1,3,0] x[2,1,3,1] x[2,1,3,2]
 x[2,2,0,0] x[2,2,0,1] x[2,2,0,2] x[2,2,1,0] x[2,2,1,1] x[2,2,1,2]
 x[2,2,2,0] x[2,2,2,1] x[2,2,2,2] x[2,2,3,0] x[2,2,3,1] x[2,2,3,2]
 x[3,0,0,0] x[3,0,0,1] x[3,0,0,2] x[3,0,1,0] x[3,0,1,1] x[3,0,1,2]
 x[3,0,2,0] x[3,0,2,1] x[3,0,2,2] x[3,0,3,0] x[3,0,3,1] x[3,0,3,2]
 x[3,1,0,0] x[3,1,0,1] x[3,1,0,2] x[3,1,1,0] x[3,1,1,1] x[3,1,1,2]
 x[3,1,2,0] x[3,1,2,1] x[3,1,2,2] x[3,1,3,0] x[3,1,3,1] x[3,1,3,2]
 x[3,2,0,0] x[3,2,0,1] x[3,2,0,2] x[3,2,1,0] x[3,2,1,1] x[3,2,1,2]
 x[3,2,2,0] x[3,2,2,1] x[3,2,2,2] x[3,2,3,0] x[3,2,3,1] x[3,2,3,2] C193
 C194 C195 C196 C197 C198 C199 C200
Generals
 s[0,0,3] s[0,0,4] s[0,1,0] s[0,1,2] s[0,2,3] s[0,2,4] s[1,0,2] s[1,0,3]
 s[1,1,2] s[1,1,3] s[1,2,1] s[1,2,4] s[2,0,1] s[2,0,4] s[2,1,1] s[2,1,2]
 s[2,2,0] s[2,2,2] s[3,0,1] s[3,0,4] s[3,1,0] s[3,1,2] s[3,2,0] s[3,2,2]
 Z_FO
End
